C000

VEHICLE
NUMBER     CAPACITY
  5         80

CUSTOMER
CUST NO.  XCOORD.   YCOORD.    DEMAND   READY TIME  DUE DATE   SERVICE   TIME
 
    0      100        100         0          0       1236          0   
    1      0          20         10        912        967         90   
    2      5          30         30        825        870         90   
    3      20         50         10         65        146         90   
    4      30         20         10        727        782         90   
    5      30         40         10         15         67         90   
    6      170        200         20        621        702         90   
    7      190        180         20        170        225         90   
    8      175        0          20        255        324         90   
    9      190        10         10        534        605         90   
   10      180        20         10        357        410         90   
   11      180        10         10        448        505         90   
   12      200        15         20        652        721         90   
   13      10         200        30         30         92         90   
   14      10         180        10        567        620         90   
   15      20         180        30        384        429         90   
